NAME : 10_3_3_2_(06).dat
COMMENT : Henke, Speranza, Wäscher, 2015
TYPE : MCVRP
DIMENSION : 11
EDGE_WEIGHT_TYPE : DISTANCE_MATRIX
CAPACITY : 1000
VEHICLES : 2
PRODUCT TYPES : 3
COMPARTMENTS : 3
NODE_COORD_SECTION
1 50 50
2 59.61 68.53
3 11.8 21.93
4 13.02 43.04
5 52.99 46.43
6 94.5 83.38
7 26.56 65.68
8 35.11 85.83
9 51.62 6.83
10 78.99 13.98
11 45.43 34.74
DEMAND_SECTION
1 0 0 0
2 52 117 0
3 43 105 0
4 89 0 27
5 55 0 3
6 124 53 0
7 106 0 29
8 16 101 0
9 119 0 38
10 0 50 97
11 106 0 91
DEPOT_SECTION
1
EOF